nb_edges = 45;
e_name = ["aa", "ab", "ac", "ad", "ae", "af", "ag", "ah", "ai", "aj", "ak", "al", "am", "an", "ao", "ap", "aq", "ar", "as", "at", "au", "av", "aw", "ax", "ay", "az", "ba", "bb", "bc", "bd", "be", "bf", "bg", "bh", "bi", "bj", "bk", "bl", "bm", "bn", "bo", "bp", "bq", "br", "bs"];
e_type = [border, border, inter, inter, inter, inter, inter, inter, inter, inter, inter, inter, inter, inter, inter, platform, platform, platform, platform, platform, platform, platform, platform, platform, platform, platform, platform, platform, platform, platform, inter, inter, inter, inter, inter, inter, inter, inter, inter, inter, inter, inter, inter, border, border];
e_cols = [{1}, {2}, {3}, {4}, {4}, {5}, {5}, {5}, {6, 7}, {6}, {6}, {7}, {7}, {7}, {7}, {8}, {8}, {8}, {8}, {8}, {9}, {9}, {9}, {9}, {9}, {10}, {10}, {10}, {10}, {10}, {11, 12}, {11}, {11}, {11}, {11}, {12}, {12}, {13}, {13}, {13}, {14}, {15}, {15}, {16}, {17}];
nb_trains = 17;
t_name = ["T1", "T2", "T3", "T4", "T5", "T6", "T7", "T8", "T9", "T10", "T11", "T12", "T13", "T14", "T15", "T16", "T17"];
t_routes = [{1}, {2}, {3}, {4}, {5}, {6, 7, 8, 9, 10}, {11}, {12}, {13}, {16, 17, 18, 14, 15}, {19, 20, 21, 22, 23}, {24, 25, 26, 27, 28}, {29}, {30}, {31}, {32}, {33}];
t_est = [582, 1123, 1382, 33, 2124, 1966, 1886, 259, 2189, 2779, 1516, 1275, 1043, 941, 33, 33, 33];
t_type = [origin, vanish, vanish, origin, vanish, pass, origin, vanish, vanish, pass, pass, pass, origin, origin, reverse, reverse, reverse];
nb_routes = 33;
r_name = ["I4W", "IW2", "IW3", "I1E", "IW4", "IE1-I1W", "IE2-I2W", "IE3-I3W", "IE4-I4W", "IE5-I5W", "I3W", "IW5", "IE1", "IE1-I1W", "IE2-I2W", "IE3-I3W", "IE4-I4W", "IE5-I5W", "IE1-I1W", "IE2-I2W", "IE3-I3W", "IE4-I4W", "IE5-I5W", "IW1-I1E", "IW2-I2E", "IW3-I3E", "IW4-I4E", "IW5-I5E", "I2E", "I5E", "I4W-I4W", "IW4-I4W", "IE4-I4E"];
r_it_1 = ["I4W", "IW2", "IW3", "I1E", "IW4", "IE1", "IE2", "IE3", "IE4", "IE5", "I3W", "IW5", "IE1", "IE1", "IE2", "IE3", "IE4", "IE5", "IE1", "IE2", "IE3", "IE4", "IE5", "IW1", "IW2", "IW3", "IW4", "IW5", "I2E", "I5E", "I4W", "IW4", "IE4"];
r_it_2 = ["", "", "", "", "", "I1W", "I2W", "I3W", "I4W", "I5W", "", "", "", "I1W", "I2W", "I3W", "I4W", "I5W", "I1W", "I2W", "I3W", "I4W", "I5W", "I1E", "I2E", "I3E", "I4E", "I5E", "", "", "I4W", "I4W", "I4E"];
r_platform_name = ["S_IV", "S_II", "S_III", "S_I", "S_IV", "S_I", "S_II", "S_III", "S_IV", "S_V", "S_III", "S_V", "S_I", "S_I", "S_II", "S_III", "S_IV", "S_V", "S_I", "S_II", "S_III", "S_IV", "S_V", "S_I", "S_II", "S_III", "S_IV", "S_V", "S_II", "S_V", "S_IV", "S_IV", "S_IV"];
r_dwell_min = [0, 100, 100, 0, 100, 0, 0, 0, 0, 0, 0, 100, 100, 0, 0, 0, 0, 0, 0, 0, 0, 0, 0, 100, 100, 100, 100, 100, 0, 0, 0, 0, 100];
r_dur_min = [60, 60, 60, 60, 60, 120, 120, 120, 120, 120, 60, 60, 60, 120, 120, 120, 120, 120, 120, 120, 120, 120, 120, 120, 120, 120, 120, 120, 60, 60, 120, 120, 120];
r_overlap = [0, 0, 0, 0, 0, 1, 1, 1, 1, 1, 0, 0, 0, 1, 1, 1, 1, 1, 1, 1, 1, 1, 1, 1, 1, 1, 1, 1, 0, 0, 1, 1, 1];
r_block_start = [1, 9, 17, 25, 32, 40, 51, 64, 77, 90, 103, 111, 119, 126, 137, 150, 163, 176, 189, 200, 213, 226, 239, 252, 263, 276, 289, 302, 315, 323, 331, 339, 352];
r_block_end = [8, 16, 24, 31, 39, 50, 63, 76, 89, 102, 110, 118, 125, 136, 149, 162, 175, 188, 199, 212, 225, 238, 251, 262, 275, 288, 301, 314, 322, 330, 338, 351, 364];
r_train = [1, 2, 3, 4, 5, 6, 6, 6, 6, 6, 7, 8, 9, 10, 10, 10, 10, 10, 11, 11, 11, 11, 11, 12, 12, 12, 12, 12, 13, 14, 15, 16, 17];
nb_blocks = 364;
b_edge = [29, 24, 19, 14, 11, 8, 5, 2, 1, 3, 6, 10, 12, 17, 22, 27, 1, 3, 6, 10, 13, 18, 23, 28, 16, 21, 26, 31, 38, 41, 44, 1, 3, 7, 11, 14, 19, 24, 29, 45, 42, 38, 31, 26, 21, 16, 9, 6, 4, 2, 45, 42, 38, 36, 32, 27, 22, 17, 12, 10, 6, 4, 2, 45, 42, 38, 36, 33, 28, 23, 18, 13, 10, 6, 4, 2, 45, 43, 40, 37, 34, 29, 24, 19, 14, 11, 8, 5, 2, 45, 43, 40, 37, 35, 30, 25, 20, 15, 11, 8, 5, 2, 28, 23, 18, 13, 10, 6, 4, 2, 1, 3, 7, 11, 15, 20, 25, 30, 45, 42, 38, 31, 26, 21, 16, 45, 42, 38, 31, 26, 21, 16, 9, 6, 4, 2, 45, 42, 38, 36, 32, 27, 22, 17, 12, 10, 6, 4, 2, 45, 42, 38, 36, 33, 28, 23, 18, 13, 10, 6, 4, 2, 45, 43, 40, 37, 34, 29, 24, 19, 14, 11, 8, 5, 2, 45, 43, 40, 37, 35, 30, 25, 20, 15, 11, 8, 5, 2, 45, 42, 38, 31, 26, 21, 16, 9, 6, 4, 2, 45, 42, 38, 36, 32, 27, 22, 17, 12, 10, 6, 4, 2, 45, 42, 38, 36, 33, 28, 23, 18, 13, 10, 6, 4, 2, 45, 43, 40, 37, 34, 29, 24, 19, 14, 11, 8, 5, 2, 45, 43, 40, 37, 35, 30, 25, 20, 15, 11, 8, 5, 2, 1, 3, 6, 9, 16, 21, 26, 31, 38, 41, 44, 1, 3, 6, 10, 12, 17, 22, 27, 32, 36, 38, 41, 44, 1, 3, 6, 10, 13, 18, 23, 28, 33, 36, 38, 41, 44, 1, 3, 7, 11, 14, 19, 24, 29, 34, 37, 39, 41, 44, 1, 3, 7, 11, 15, 20, 25, 30, 35, 37, 39, 41, 44, 17, 22, 27, 32, 36, 38, 41, 44, 20, 25, 30, 35, 37, 39, 41, 44, 29, 24, 19, 14, 11, 8, 5, 2, 1, 3, 7, 11, 14, 19, 24, 29, 14, 11, 8, 5, 2, 45, 43, 40, 37, 34, 29, 24, 19, 34, 37, 39, 41, 44];
b_dur = [0, 0, 0, 12, 24, 36, 48, 60, 7, 15, 22, 30, 37, 45, 52, 60, 7, 15, 22, 30, 37, 45, 52, 60, 0, 0, 0, 15, 30, 45, 60, 7, 15, 22, 30, 37, 45, 52, 60, 8, 17, 25, 34, 42, 51, 61, 15, 30, 45, 60, 7, 15, 22, 30, 37, 45, 52, 61, 12, 24, 36, 48, 60, 7, 15, 22, 30, 37, 45, 52, 61, 12, 24, 36, 48, 60, 7, 15, 22, 30, 37, 45, 52, 61, 12, 24, 36, 48, 60, 7, 15, 22, 30, 37, 45, 52, 61, 12, 24, 36, 48, 60, 0, 0, 0, 12, 24, 36, 48, 60, 7, 15, 22, 30, 37, 45, 52, 60, 8, 17, 25, 34, 42, 51, 60, 8, 17, 25, 34, 42, 51, 61, 15, 30, 45, 60, 7, 15, 22, 30, 37, 45, 52, 61, 12, 24, 36, 48, 60, 7, 15, 22, 30, 37, 45, 52, 61, 12, 24, 36, 48, 60, 7, 15, 22, 30, 37, 45, 52, 61, 12, 24, 36, 48, 60, 7, 15, 22, 30, 37, 45, 52, 61, 12, 24, 36, 48, 60, 8, 17, 25, 34, 42, 51, 61, 15, 30, 45, 60, 7, 15, 22, 30, 37, 45, 52, 61, 12, 24, 36, 48, 60, 7, 15, 22, 30, 37, 45, 52, 61, 12, 24, 36, 48, 60, 7, 15, 22, 30, 37, 45, 52, 61, 12, 24, 36, 48, 60, 7, 15, 22, 30, 37, 45, 52, 61, 12, 24, 36, 48, 60, 8, 17, 25, 34, 42, 51, 61, 15, 30, 45, 60, 7, 15, 22, 30, 37, 45, 52, 61, 12, 24, 36, 48, 60, 7, 15, 22, 30, 37, 45, 52, 61, 12, 24, 36, 48, 60, 7, 15, 22, 30, 37, 45, 52, 61, 12, 24, 36, 48, 60, 7, 15, 22, 30, 37, 45, 52, 61, 12, 24, 36, 48, 60, 0, 0, 0, 12, 24, 36, 48, 60, 0, 0, 0, 12, 24, 36, 48, 60, 0, 0, 0, 12, 24, 36, 48, 60, 7, 15, 22, 30, 37, 45, 52, 60, 12, 24, 36, 48, 60, 7, 15, 22, 30, 37, 45, 52, 61, 12, 24, 36, 48, 60];
b_start_offset = [0, 0, 0, 0, -12, -24, -36, -48, 0, -7, -15, -22, -30, -37, -45, -52, 0, -7, -15, -22, -30, -37, -45, -52, 0, 0, 0, 0, -15, -30, -45, 0, -7, -15, -22, -30, -37, -45, -52, 0, -8, -17, -25, -34, -42, -51, -1, -15, -30, -45, 0, -7, -15, -22, -30, -37, -45, -52, -1, -12, -24, -36, -48, 0, -7, -15, -22, -30, -37, -45, -52, -1, -12, -24, -36, -48, 0, -7, -15, -22, -30, -37, -45, -52, -1, -12, -24, -36, -48, 0, -7, -15, -22, -30, -37, -45, -52, -1, -12, -24, -36, -48, 0, 0, 0, 0, -12, -24, -36, -48, 0, -7, -15, -22, -30, -37, -45, -52, 0, -8, -17, -25, -34, -42, -51, 0, -8, -17, -25, -34, -42, -51, -1, -15, -30, -45, 0, -7, -15, -22, -30, -37, -45, -52, -1, -12, -24, -36, -48, 0, -7, -15, -22, -30, -37, -45, -52, -1, -12, -24, -36, -48, 0, -7, -15, -22, -30, -37, -45, -52, -1, -12, -24, -36, -48, 0, -7, -15, -22, -30, -37, -45, -52, -1, -12, -24, -36, -48, 0, -8, -17, -25, -34, -42, -51, -1, -15, -30, -45, 0, -7, -15, -22, -30, -37, -45, -52, -1, -12, -24, -36, -48, 0, -7, -15, -22, -30, -37, -45, -52, -1, -12, -24, -36, -48, 0, -7, -15, -22, -30, -37, -45, -52, -1, -12, -24, -36, -48, 0, -7, -15, -22, -30, -37, -45, -52, -1, -12, -24, -36, -48, 0, -8, -17, -25, -34, -42, -51, -1, -15, -30, -45, 0, -7, -15, -22, -30, -37, -45, -52, -1, -12, -24, -36, -48, 0, -7, -15, -22, -30, -37, -45, -52, -1, -12, -24, -36, -48, 0, -7, -15, -22, -30, -37, -45, -52, -1, -12, -24, -36, -48, 0, -7, -15, -22, -30, -37, -45, -52, -1, -12, -24, -36, -48, 0, 0, 0, 0, -12, -24, -36, -48, 0, 0, 0, 0, -12, -24, -36, -48, 0, 0, 0, -1, -12, -24, -36, -48, 0, -7, -15, -22, -30, -37, -45, -52, -1, -12, -24, -36, -48, 0, -7, -15, -22, -30, -37, -45, -52, -1, -12, -24, -36, -48];
b_stop = [true, true, true, false, false, false, false, false, false, false, false, false, false, false, false, true, false, false, false, false, false, false, false, true, true, true, true, false, false, false, false, false, false, false, false, false, false, false, true, false, false, false, false, false, false, true, false, false, false, false, false, false, false, false, false, false, false, true, false, false, false, false, false, false, false, false, false, false, false, false, true, false, false, false, false, false, false, false, false, false, false, false, false, true, false, false, false, false, false, false, false, false, false, false, false, false, true, false, false, false, false, false, true, true, true, false, false, false, false, false, false, false, false, false, false, false, false, true, false, false, false, false, false, false, true, false, false, false, false, false, false, true, false, false, false, false, false, false, false, false, false, false, false, true, false, false, false, false, false, false, false, false, false, false, false, false, true, false, false, false, false, false, false, false, false, false, false, false, false, true, false, false, false, false, false, false, false, false, false, false, false, false, true, false, false, false, false, false, false, false, false, false, false, false, true, false, false, false, false, false, false, false, false, false, false, false, true, false, false, false, false, false, false, false, false, false, false, false, false, true, false, false, false, false, false, false, false, false, false, false, false, false, true, false, false, false, false, false, false, false, false, false, false, false, false, true, false, false, false, false, false, false, false, false, false, false, false, true, false, false, false, false, false, false, false, false, false, false, false, true, false, false, false, false, false, false, false, false, false, false, false, false, true, false, false, false, false, false, false, false, false, false, false, false, false, true, false, false, false, false, false, false, false, false, false, false, false, false, true, false, false, false, false, false, true, true, true, false, false, false, false, false, true, true, true, false, false, false, false, false, true, true, true, false, false, false, false, false, false, false, false, false, false, false, false, true, false, false, false, false, false, false, false, false, false, false, false, false, true, false, false, false, false, false];
b_route = [1, 1, 1, 1, 1, 1, 1, 1, 2, 2, 2, 2, 2, 2, 2, 2, 3, 3, 3, 3, 3, 3, 3, 3, 4, 4, 4, 4, 4, 4, 4, 5, 5, 5, 5, 5, 5, 5, 5, 6, 6, 6, 6, 6, 6, 6, 6, 6, 6, 6, 7, 7, 7, 7, 7, 7, 7, 7, 7, 7, 7, 7, 7, 8, 8, 8, 8, 8, 8, 8, 8, 8, 8, 8, 8, 8, 9, 9, 9, 9, 9, 9, 9, 9, 9, 9, 9, 9, 9, 10, 10, 10, 10, 10, 10, 10, 10, 10, 10, 10, 10, 10, 11, 11, 11, 11, 11, 11, 11, 11, 12, 12, 12, 12, 12, 12, 12, 12, 13, 13, 13, 13, 13, 13, 13, 14, 14, 14, 14, 14, 14, 14, 14, 14, 14, 14, 15, 15, 15, 15, 15, 15, 15, 15, 15, 15, 15, 15, 15, 16, 16, 16, 16, 16, 16, 16, 16, 16, 16, 16, 16, 16, 17, 17, 17, 17, 17, 17, 17, 17, 17, 17, 17, 17, 17, 18, 18, 18, 18, 18, 18, 18, 18, 18, 18, 18, 18, 18, 19, 19, 19, 19, 19, 19, 19, 19, 19, 19, 19, 20, 20, 20, 20, 20, 20, 20, 20, 20, 20, 20, 20, 20, 21, 21, 21, 21, 21, 21, 21, 21, 21, 21, 21, 21, 21, 22, 22, 22, 22, 22, 22, 22, 22, 22, 22, 22, 22, 22, 23, 23, 23, 23, 23, 23, 23, 23, 23, 23, 23, 23, 23, 24, 24, 24, 24, 24, 24, 24, 24, 24, 24, 24, 25, 25, 25, 25, 25, 25, 25, 25, 25, 25, 25, 25, 25, 26, 26, 26, 26, 26, 26, 26, 26, 26, 26, 26, 26, 26, 27, 27, 27, 27, 27, 27, 27, 27, 27, 27, 27, 27, 27, 28, 28, 28, 28, 28, 28, 28, 28, 28, 28, 28, 28, 28, 29, 29, 29, 29, 29, 29, 29, 29, 30, 30, 30, 30, 30, 30, 30, 30, 31, 31, 31, 31, 31, 31, 31, 31, 32, 32, 32, 32, 32, 32, 32, 32, 32, 32, 32, 32, 32, 33, 33, 33, 33, 33, 33, 33, 33, 33, 33, 33, 33, 33];
